(set-logic HORN)
(declare-datatypes ((Nat_109 0)) (((Z_308 ) (S_109 (unS_112 Nat_109)))))
(declare-fun diseqNat_109 (Nat_109 Nat_109) Bool)
(declare-fun unS_113 (Nat_109 Nat_109) Bool)
(declare-fun isZ_109 (Nat_109) Bool)
(declare-fun isS_109 (Nat_109) Bool)
(assert (forall ((x_3017 Nat_109))
	(unS_113 x_3017 (S_109 x_3017))))
(assert (isZ_109 Z_308))
(assert (forall ((x_3019 Nat_109))
	(isS_109 (S_109 x_3019))))
(assert (forall ((x_3020 Nat_109))
	(diseqNat_109 Z_308 (S_109 x_3020))))
(assert (forall ((x_3021 Nat_109))
	(diseqNat_109 (S_109 x_3021) Z_308)))
(assert (forall ((x_3022 Nat_109) (x_3023 Nat_109))
	(=> (diseqNat_109 x_3022 x_3023)
	    (diseqNat_109 (S_109 x_3022) (S_109 x_3023)))))
(declare-fun add_56 (Nat_109 Nat_109 Nat_109) Bool)
(declare-fun minus_56 (Nat_109 Nat_109 Nat_109) Bool)
(declare-fun le_56 (Nat_109 Nat_109) Bool)
(declare-fun ge_56 (Nat_109 Nat_109) Bool)
(declare-fun lt_56 (Nat_109 Nat_109) Bool)
(declare-fun gt_56 (Nat_109 Nat_109) Bool)
(declare-fun mult_56 (Nat_109 Nat_109 Nat_109) Bool)
(declare-fun div_56 (Nat_109 Nat_109 Nat_109) Bool)
(declare-fun mod_56 (Nat_109 Nat_109 Nat_109) Bool)
(assert (forall ((y_243 Nat_109))
	(add_56 y_243 Z_308 y_243)))
(assert (forall ((x_2993 Nat_109) (y_243 Nat_109) (r_56 Nat_109))
	(=> (add_56 r_56 x_2993 y_243)
	    (add_56 (S_109 r_56) (S_109 x_2993) y_243))))
(assert (forall ((y_243 Nat_109))
	(minus_56 Z_308 Z_308 y_243)))
(assert (forall ((x_2993 Nat_109) (y_243 Nat_109) (r_56 Nat_109))
	(=> (minus_56 r_56 x_2993 y_243)
	    (minus_56 (S_109 r_56) (S_109 x_2993) y_243))))
(assert (forall ((y_243 Nat_109))
	(le_56 Z_308 y_243)))
(assert (forall ((x_2993 Nat_109) (y_243 Nat_109))
	(=> (le_56 x_2993 y_243)
	    (le_56 (S_109 x_2993) (S_109 y_243)))))
(assert (forall ((y_243 Nat_109))
	(ge_56 y_243 Z_308)))
(assert (forall ((x_2993 Nat_109) (y_243 Nat_109))
	(=> (ge_56 x_2993 y_243)
	    (ge_56 (S_109 x_2993) (S_109 y_243)))))
(assert (forall ((y_243 Nat_109))
	(lt_56 Z_308 (S_109 y_243))))
(assert (forall ((x_2993 Nat_109) (y_243 Nat_109))
	(=> (lt_56 x_2993 y_243)
	    (lt_56 (S_109 x_2993) (S_109 y_243)))))
(assert (forall ((y_243 Nat_109))
	(gt_56 (S_109 y_243) Z_308)))
(assert (forall ((x_2993 Nat_109) (y_243 Nat_109))
	(=> (gt_56 x_2993 y_243)
	    (gt_56 (S_109 x_2993) (S_109 y_243)))))
(assert (forall ((y_243 Nat_109))
	(mult_56 Z_308 Z_308 y_243)))
(assert (forall ((x_2993 Nat_109) (y_243 Nat_109) (r_56 Nat_109) (z_309 Nat_109))
	(=>	(and (mult_56 r_56 x_2993 y_243)
			(add_56 z_309 r_56 y_243))
		(mult_56 z_309 (S_109 x_2993) y_243))))
(assert (forall ((x_2993 Nat_109) (y_243 Nat_109))
	(=> (lt_56 x_2993 y_243)
	    (div_56 Z_308 x_2993 y_243))))
(assert (forall ((x_2993 Nat_109) (y_243 Nat_109) (r_56 Nat_109) (z_309 Nat_109))
	(=>	(and (ge_56 x_2993 y_243)
			(minus_56 z_309 x_2993 y_243)
			(div_56 r_56 z_309 y_243))
		(div_56 (S_109 r_56) x_2993 y_243))))
(assert (forall ((x_2993 Nat_109) (y_243 Nat_109))
	(=> (lt_56 x_2993 y_243)
	    (mod_56 x_2993 x_2993 y_243))))
(assert (forall ((x_2993 Nat_109) (y_243 Nat_109) (r_56 Nat_109) (z_309 Nat_109))
	(=>	(and (ge_56 x_2993 y_243)
			(minus_56 z_309 x_2993 y_243)
			(mod_56 r_56 z_309 y_243))
		(mod_56 r_56 x_2993 y_243))))
(declare-datatypes ((list_50 0)) (((nil_50 ) (cons_50 (head_100 Nat_109) (tail_100 list_50)))))
(declare-fun diseqlist_50 (list_50 list_50) Bool)
(declare-fun head_101 (Nat_109 list_50) Bool)
(declare-fun tail_101 (list_50 list_50) Bool)
(declare-fun isnil_50 (list_50) Bool)
(declare-fun iscons_50 (list_50) Bool)
(assert (forall ((x_2995 Nat_109) (x_2996 list_50))
	(head_101 x_2995 (cons_50 x_2995 x_2996))))
(assert (forall ((x_2995 Nat_109) (x_2996 list_50))
	(tail_101 x_2996 (cons_50 x_2995 x_2996))))
(assert (isnil_50 nil_50))
(assert (forall ((x_2998 Nat_109) (x_2999 list_50))
	(iscons_50 (cons_50 x_2998 x_2999))))
(assert (forall ((x_3000 Nat_109) (x_3001 list_50))
	(diseqlist_50 nil_50 (cons_50 x_3000 x_3001))))
(assert (forall ((x_3002 Nat_109) (x_3003 list_50))
	(diseqlist_50 (cons_50 x_3002 x_3003) nil_50)))
(assert (forall ((x_3004 Nat_109) (x_3005 list_50) (x_3006 Nat_109) (x_3007 list_50))
	(=> (diseqNat_109 x_3004 x_3006)
	    (diseqlist_50 (cons_50 x_3004 x_3005) (cons_50 x_3006 x_3007)))))
(assert (forall ((x_3004 Nat_109) (x_3005 list_50) (x_3006 Nat_109) (x_3007 list_50))
	(=> (diseqlist_50 x_3005 x_3007)
	    (diseqlist_50 (cons_50 x_3004 x_3005) (cons_50 x_3006 x_3007)))))
(declare-datatypes ((Nat_108 0)) (((Z_304 ) (S_108 (projS_104 Nat_108)))))
(declare-fun diseqNat_108 (Nat_108 Nat_108) Bool)
(declare-fun projS_105 (Nat_108 Nat_108) Bool)
(declare-fun isZ_108 (Nat_108) Bool)
(declare-fun isS_108 (Nat_108) Bool)
(assert (forall ((x_3009 Nat_108))
	(projS_105 x_3009 (S_108 x_3009))))
(assert (isZ_108 Z_304))
(assert (forall ((x_3011 Nat_108))
	(isS_108 (S_108 x_3011))))
(assert (forall ((x_3012 Nat_108))
	(diseqNat_108 Z_304 (S_108 x_3012))))
(assert (forall ((x_3013 Nat_108))
	(diseqNat_108 (S_108 x_3013) Z_304)))
(assert (forall ((x_3014 Nat_108) (x_3015 Nat_108))
	(=> (diseqNat_108 x_3014 x_3015)
	    (diseqNat_108 (S_108 x_3014) (S_108 x_3015)))))
(declare-fun take_10 (list_50 Nat_108 list_50) Bool)
(assert (forall ((x_2978 list_50) (x_2970 Nat_109) (x_2971 list_50) (z_305 Nat_108))
	(=> (take_10 x_2978 z_305 x_2971)
	    (take_10 (cons_50 x_2970 x_2978) (S_108 z_305) (cons_50 x_2970 x_2971)))))
(assert (forall ((z_305 Nat_108))
	(take_10 nil_50 (S_108 z_305) nil_50)))
(assert (forall ((y_240 list_50))
	(take_10 nil_50 Z_304 y_240)))
(declare-fun drop_10 (list_50 Nat_108 list_50) Bool)
(assert (forall ((x_2981 list_50) (x_2973 Nat_109) (x_2974 list_50) (z_306 Nat_108))
	(=> (drop_10 x_2981 z_306 x_2974)
	    (drop_10 x_2981 (S_108 z_306) (cons_50 x_2973 x_2974)))))
(assert (forall ((z_306 Nat_108))
	(drop_10 nil_50 (S_108 z_306) nil_50)))
(assert (forall ((x_2984 list_50))
	(drop_10 x_2984 Z_304 x_2984)))
(declare-fun x_2975 (Nat_108 Nat_108 Nat_108) Bool)
(assert (forall ((x_2986 Nat_108) (z_307 Nat_108) (y_242 Nat_108))
	(=> (x_2975 x_2986 z_307 y_242)
	    (x_2975 (S_108 x_2986) (S_108 z_307) y_242))))
(assert (forall ((x_2987 Nat_108))
	(x_2975 x_2987 Z_304 x_2987)))
(assert (forall ((x_2988 list_50) (x_2989 list_50) (x_2990 Nat_108) (x_2991 list_50) (x_2992 list_50) (n_22 Nat_108) (m_10 Nat_108) (xs_91 list_50))
	(=>	(and true
			(diseqlist_50 x_2989 x_2992)
			(drop_10 x_2988 m_10 xs_91)
			(take_10 x_2989 n_22 x_2988)
			(x_2975 x_2990 n_22 m_10)
			(take_10 x_2991 x_2990 xs_91)
			(drop_10 x_2992 m_10 x_2991))
		false)))
(check-sat)
